119 48 011 1
1
206 113 1
150 114 1
143 115 1
172 116 1
163 117 1
171 118 1
100 119 1
186 108 1
153 109 1
153 110 1
163 111 1
156 112 1
139 113 1
156 114 1
160 115 1
141 116 1
228 117 1
140 118 1
117 119 1
94 108 1
191 109 1
213 110 1
152 111 1
158 112 1
192 113 1
116 114 1
129 115 1
155 116 1
242 117 1
221 118 1
190 119 1
178 108 1
183 109 1
204 110 1
106 111 1
136 112 1
122 113 1
159 114 1
152 115 1
163 116 1
162 117 1
143 118 1
149 119 1
143 108 1
275 109 1
152 110 1
203 111 1
158 112 1
1
1
1
1
1
1
1
1
1
1
1
1
1
1
1
1
1
1
1
1
1
1
1
1
1
1
1
1
1
1
1
1
1
1
1
1
1
1
1
1
1
1
1
1
1
1
1
1
1
1
1
1
1
1
1
1
1
1
1 9 185 21 93 33 177 45 142
1 10 152 22 190 34 182 46 274
1 11 152 23 212 35 203 47 151
1 12 162 24 151 36 105 48 202
1 13 155 25 157 37 135 49 157
1 2 205 14 138 26 191 38 121
1 3 149 15 155 27 115 39 158
1 4 142 16 159 28 128 40 151
1 5 171 17 140 29 154 41 162
1 6 162 18 227 30 241 42 161
1 7 170 19 139 31 220 43 142
1 8 99 20 116 32 189 44 148
